NAME: rand_0/map5_72
TYPE: TSP
COMMENT: autogenerated using a wonderful map creator
DIMENSION: 96
EDGE_WEIGHT_TYPE: EUC_2D
NODE_COORD_SECTION
1 3.0 3.0
2 80.0 3.0
3 5.0 6.0
4 3.0 7.0
5 2.0 6.0
6 78.0 6.0
7 82.0 8.0
8 4.0 4.0
9 79.0 7.0
10 82.0 2.0
11 78.0 3.0
12 79.0 3.0
13 78.0 1.0
14 5.0 1.0
15 3.0 8.0
16 79.0 1.0
17 3.0 9.0
18 82.0 3.0
19 4.0 1.0
20 3.0 4.0
21 81.0 7.0
22 82.0 7.0
23 5.0 3.0
24 79.0 5.0
25 80.0 7.0
26 1.0 3.0
27 81.0 5.0
28 5.0 5.0
29 79.0 8.0
30 80.0 1.0
31 4.0 9.0
32 81.0 9.0
33 80.0 4.0
34 1.0 8.0
35 82.0 9.0
36 4.0 5.0
37 2.0 1.0
38 2.0 2.0
39 81.0 4.0
40 4.0 7.0
41 80.0 6.0
42 4.0 2.0
43 1.0 5.0
44 78.0 4.0
45 81.0 3.0
46 3.0 2.0
47 1.0 7.0
48 79.0 4.0
49 47.0 7.0
50 57.0 2.0
51 24.0 8.0
52 72.0 2.0
53 17.0 5.0
54 28.0 5.0
55 43.0 5.0
56 32.0 5.0
57 21.0 2.0
58 54.0 8.0
59 56.0 5.0
60 47.0 2.0
61 7.0 5.0
62 62.0 5.0
63 20.0 8.0
64 36.0 4.0
65 68.0 8.0
66 13.0 5.0
67 36.0 6.0
68 14.0 3.0
69 28.0 2.0
70 17.0 2.0
71 41.0 5.0
72 32.0 2.0
73 25.0 6.0
74 12.0 8.0
75 29.0 2.0
76 73.0 2.0
77 7.0 8.0
78 62.0 2.0
79 53.0 8.0
80 29.0 8.0
81 13.0 2.0
82 48.0 5.0
83 70.0 8.0
84 50.0 5.0
85 19.0 8.0
86 10.0 5.0
87 76.0 5.0
88 54.0 2.0
89 21.0 8.0
90 14.0 2.0
91 60.0 8.0
92 47.0 8.0
93 27.0 5.0
94 73.0 8.0
95 49.0 8.0
96 40.0 5.0
97 20.0 2.0
98 55.0 5.0
99 58.0 4.0
100 33.0 2.0
101 68.0 5.0
102 66.0 8.0
103 48.0 2.0
104 39.0 8.0
105 15.0 8.0
106 59.0 5.0
107 17.0 8.0
108 30.0 5.0
109 76.0 2.0
110 21.0 5.0
111 23.0 2.0
112 12.0 2.0
113 34.0 8.0
114 36.0 5.0
115 47.0 5.0
116 45.0 8.0
117 27.0 2.0
118 51.0 5.0
119 40.0 2.0
120 18.0 8.0
START_DEPOT_SECTION
1
2
3
4
5
6
7
8
9
10
11
12
13
14
15
16
17
18
19
20
21
22
23
24
-1
END_DEPOT_SECTION
25
26
27
28
29
30
31
32
33
34
35
36
37
38
39
40
41
42
43
44
45
46
47
48
-1
EOF
